(set-logic QF_UF)
(declare-fun A0 () Bool)
(declare-fun A1 () Bool)
(declare-fun A2 () Bool)
(declare-fun A3 () Bool)
(declare-fun A4 () Bool)
(declare-fun A5 () Bool)
(declare-fun A6 () Bool)
(declare-fun A7 () Bool)
(declare-fun A8 () Bool)
(declare-fun A9 () Bool)
(declare-fun A10 () Bool)
(declare-fun A11 () Bool)
(declare-fun A12 () Bool)
(declare-fun A13 () Bool)
(declare-fun A14 () Bool)
(declare-fun A15 () Bool)
(declare-fun A16 () Bool)
(declare-fun A17 () Bool)
(declare-fun A18 () Bool)
(declare-fun A19 () Bool)
(declare-fun A20 () Bool)
(declare-fun A21 () Bool)
(declare-fun A22 () Bool)
(declare-fun A23 () Bool)
(declare-fun A24 () Bool)
(declare-fun A25 () Bool)
(declare-fun A26 () Bool)
(declare-fun A27 () Bool)
(declare-fun A28 () Bool)
(assert (let ((.def_0 (not A8))) (let ((.def_1 (and A23 .def_0))) (let ((.def_2 (not .def_1))) (let ((.def_3 (and A0 A21))) (let ((.def_4 (not .def_3))) (let ((.def_5 (and .def_4 .def_2))) (let ((.def_6 (not .def_5))) (let ((.def_7 (not A20))) (let ((.def_8 (not A19))) (let ((.def_9 (and .def_8 .def_7))) (let ((.def_10 (not .def_9))) (let ((.def_11 (not A3))) (let ((.def_12 (not A27))) (let ((.def_13 (or .def_12 .def_11))) (let ((.def_14 (or .def_13 .def_10))) (let ((.def_15 (or .def_14 .def_6))) (let ((.def_16 (not A12))) (let ((.def_17 (and .def_8 .def_16))) (let ((.def_18 (not A18))) (let ((.def_19 (and A3 .def_18))) (let ((.def_20 (not .def_19))) (let ((.def_21 (or .def_20 .def_17))) (let ((.def_22 (not A26))) (let ((.def_23 (or A0 .def_22))) (let ((.def_24 (not .def_23))) (let ((.def_25 (not A21))) (let ((.def_26 (or A1 .def_25))) (let ((.def_27 (= .def_26 .def_24))) (let ((.def_28 (and .def_27 .def_21))) (let ((.def_29 (not .def_28))) (let ((.def_30 (and .def_29 .def_15))) (let ((.def_31 (not .def_30))) (let ((.def_32 (not A2))) (let ((.def_33 (not A4))) (let ((.def_34 (and .def_33 .def_32))) (let ((.def_35 (not .def_34))) (let ((.def_36 (or A26 A2))) (let ((.def_37 (and .def_36 .def_35))) (let ((.def_38 (not A9))) (let ((.def_39 (or .def_38 A6))) (let ((.def_40 (or A21 A5))) (let ((.def_41 (not .def_40))) (let ((.def_42 (or .def_41 .def_39))) (let ((.def_43 (and .def_42 .def_37))) (let ((.def_44 (not .def_43))) (let ((.def_45 (not A28))) (let ((.def_46 (not A17))) (let ((.def_47 (and .def_46 .def_45))) (let ((.def_48 (not .def_47))) (let ((.def_49 (= A13 A3))) (let ((.def_50 (or .def_49 .def_48))) (let ((.def_51 (or A25 .def_0))) (let ((.def_52 (not .def_51))) (let ((.def_53 (not A23))) (let ((.def_54 (not A7))) (let ((.def_55 (or .def_54 .def_53))) (let ((.def_56 (and .def_55 .def_52))) (let ((.def_57 (and .def_56 .def_50))) (let ((.def_58 (and .def_57 .def_44))) (let ((.def_59 (not .def_58))) (let ((.def_60 (and .def_59 .def_31))) (let ((.def_61 (not .def_60))) (let ((.def_62 (or A21 A22))) (let ((.def_63 (not .def_62))) (let ((.def_64 (not A11))) (let ((.def_65 (or .def_64 A19))) (let ((.def_66 (and .def_65 .def_63))) (let ((.def_67 (not .def_66))) (let ((.def_68 (or .def_7 A8))) (let ((.def_69 (or A21 A19))) (let ((.def_70 (or .def_69 .def_68))) (let ((.def_71 (or .def_70 .def_67))) (let ((.def_72 (not .def_71))) (let ((.def_73 (not A13))) (let ((.def_74 (or .def_73 A28))) (let ((.def_75 (and .def_22 A10))) (let ((.def_76 (and .def_75 .def_74))) (let ((.def_77 (not A16))) (let ((.def_78 (or .def_8 .def_77))) (let ((.def_79 (and .def_12 A28))) (let ((.def_80 (not .def_79))) (let ((.def_81 (and .def_80 .def_78))) (let ((.def_82 (or .def_81 .def_76))) (let ((.def_83 (= .def_82 .def_72))) (let ((.def_84 (not A24))) (let ((.def_85 (and .def_84 A12))) (let ((.def_86 (and A26 A23))) (let ((.def_87 (not .def_86))) (let ((.def_88 (and .def_87 .def_85))) (let ((.def_89 (not .def_88))) (let ((.def_90 (and A8 A25))) (let ((.def_91 (not .def_90))) (let ((.def_92 (not A15))) (let ((.def_93 (and .def_92 A14))) (let ((.def_94 (and .def_93 .def_91))) (let ((.def_95 (or .def_94 .def_89))) (let ((.def_96 (not A14))) (let ((.def_97 (or .def_64 .def_96))) (let ((.def_98 (not .def_97))) (let ((.def_99 (not A6))) (let ((.def_100 (and .def_11 .def_99))) (let ((.def_101 (and .def_100 .def_98))) (let ((.def_102 (or .def_53 A12))) (let ((.def_103 (not A5))) (let ((.def_104 (or .def_77 .def_103))) (let ((.def_105 (not .def_104))) (let ((.def_106 (= .def_105 .def_102))) (let ((.def_107 (and .def_106 .def_101))) (let ((.def_108 (and .def_107 .def_95))) (let ((.def_109 (and .def_108 .def_83))) (let ((.def_110 (or .def_109 .def_61))) (let ((.def_111 (not .def_110))) .def_111)))))))))))))))))))))))))))))))))))))))))))))))))))))))))))))))))))))))))))))))))))))))))))))))))))))))))))))))))
(check-sat)
